
Gurobi 12.0.1 (win64, Python) logging started Mon Apr 14 22:51:16 2025

Set parameter Username
Set parameter LicenseID to value 2644336
Set parameter LogFile to value "gurobi.log"
Academic license - for non-commercial use only - expires 2026-03-31
